nApps = 33
nRes = 6
nActs = 70
nNetworks = 4

assignmentToResources = [2,2,1,1,1,2,2,2,2,2,2,1,1,1,2,1,2,2,2,1,2,2,2,2,1,2,2,2,2,2,4,3,3,3,3,3,4,4,4,3,3,3,3,4,4,5,3,6,3,6,4,5,3,6,4,5,5,6,6,6,6,6,5,5,5,6,6,6,6,5];

processingTimes = [136,160,136,152,144,64,72,104,80,136,104,136,88,104,56,128,160,136,56,96,136,64,136,152,152,144,160,168,56,112,4,4,3,17,4,5,13,500,500,300,13,300,4,4,500,500,500,500,5,5,150,150,150,150,3,3,4,4,3,17,4,5,13,500,500,300,13,300,4,4];

periods = [10000,10000,10000,5000,10000,1000,10000,10000,10000,10000,10000,1000,2000,10000,2000,10000,10000,10000,10000,1000,10000,5000,10000,10000,2000,10000,10000,10000,1000,2000,10000,10000,10000,5000,5000,10000,1000,10000,10000,2000,2000,2000,1000,10000,10000,10000,10000,10000,10000,10000,1000,1000,1000,1000,2000,2000,10000,10000,10000,5000,5000,10000,1000,10000,10000,2000,2000,2000,1000,10000];

assignmentToClusters = [1,2,3,4,5,6,7,8,9,10,3,6,11,3,11,12,13,5,8,14,8,15,3,16,11,17,18,19,6,11,20,21,22,23,24,25,26,27,28,29,30,31,32,33,3,3,3,3,5,5,6,6,6,6,11,11,20,21,22,23,24,25,26,27,28,29,30,31,32,33];

precedenceAdjList = [[],[],[45],[],[],[],[],[18],[],[],[22],[51],[55],[],[29],[],[],[49],[],[],[7],[],[47],[],[12],[],[],[],[53],[],[],[],[],[],[],[],[],[],[],[],[],[],[],[],[10],[44],[13],[46],[4],[48],[5],[50],[11],[52],[14],[54],[30],[31],[32],[33],[34],[35],[36],[37],[38],[39],[40],[41],[42],[43]];